unsat
(define-fun SC ((s (_ BitVec 4)) (t (_ BitVec 4))) Bool (bvult t (bvsub #b0000 #b0001)))
1.20user 0.01system 0:01.21elapsed 99%CPU (0avgtext+0avgdata 32664maxresident)k
0inputs+8outputs (0major+2798minor)pagefaults 0swaps
